\ENCODING=ISO-8859-1
\Problem name: MOMKP_p4_n100_m4_ins1

Maximize
 obj:
Subject To
 c1:	382 x1 + 840 x2 + 317 x3 + 924 x4 + 972 x5 + 720 x6 + 297 x7 + 390 x8 + 693 x9 + 645 x10 + 841 x11 + 533 x12 + 562 x13 + 84 x14 + 812 x15 + 453 x16 + 717 x17 + 525 x18 + 824 x19 + 632 x20 + 846 x21 + 579 x22 + 168 x23 + 684 x24 + 29 x25 + 483 x26 + 467 x27 + 885 x28 + 232 x29 + 635 x30 + 327 x31 + 151 x32 + 487 x33 + 77 x34 + 381 x35 + 719 x36 + 6 x37 + 851 x38 + 599 x39 + 515 x40 + 955 x41 + 869 x42 + 887 x43 + 238 x44 + 825 x45 + 801 x46 + 474 x47 + 681 x48 + 428 x49 + 347 x50 + 5 x51 + 999 x52 + 781 x53 + 230 x54 + 94 x55 + 543 x56 + 800 x57 + 793 x58 + 14 x59 + 879 x60 + 485 x61 + 741 x62 + 742 x63 + 214 x64 + 28 x65 + 166 x66 + 336 x67 + 427 x68 + 853 x69 + 960 x70 + 343 x71 + 573 x72 + 854 x73 + 772 x74 + 354 x75 + 547 x76 + 686 x77 + 179 x78 + 772 x79 + 77 x80 + 626 x81 + 426 x82 + 112 x83 + 498 x84 + 45 x85 + 478 x86 + 83 x87 + 803 x88 + 141 x89 + 546 x90 + 866 x91 + 384 x92 + 860 x93 + 495 x94 + 846 x95 + 458 x96 + 733 x97 + 652 x98 + 349 x99 + 40 x100 <= 26238.500000000000000
 c2:	192 x1 + 734 x2 + 195 x3 + 534 x4 + 71 x5 + 809 x6 + 65 x7 + 946 x8 + 34 x9 + 831 x10 + 125 x11 + 121 x12 + 367 x13 + 89 x14 + 817 x15 + 307 x16 + 534 x17 + 524 x18 + 264 x19 + 114 x20 + 908 x21 + 901 x22 + 270 x23 + 920 x24 + 151 x25 + 641 x26 + 600 x27 + 585 x28 + 682 x29 + 646 x30 + 829 x31 + 150 x32 + 440 x33 + 118 x34 + 211 x35 + 652 x36 + 102 x37 + 845 x38 + 620 x39 + 525 x40 + 100 x41 + 96 x42 + 106 x43 + 205 x44 + 293 x45 + 840 x46 + 337 x47 + 200 x48 + 648 x49 + 592 x50 + 388 x51 + 34 x52 + 309 x53 + 427 x54 + 483 x55 + 607 x56 + 420 x57 + 642 x58 + 963 x59 + 748 x60 + 842 x61 + 509 x62 + 798 x63 + 181 x64 + 749 x65 + 615 x66 + 909 x67 + 97 x68 + 99 x69 + 383 x70 + 700 x71 + 971 x72 + 318 x73 + 636 x74 + 221 x75 + 242 x76 + 162 x77 + 56 x78 + 967 x79 + 19 x80 + 58 x81 + 393 x82 + 207 x83 + 109 x84 + 672 x85 + 332 x86 + 840 x87 + 933 x88 + 236 x89 + 827 x90 + 752 x91 + 84 x92 + 303 x93 + 936 x94 + 59 x95 + 390 x96 + 239 x97 + 450 x98 + 971 x99 + 251 x100 <= 22711.500000000000000
 c3:	333 x1 + 800 x2 + 296 x3 + 499 x4 + 86 x5 + 603 x6 + 205 x7 + 590 x8 + 392 x9 + 289 x10 + 547 x11 + 435 x12 + 637 x13 + 967 x14 + 866 x15 + 330 x16 + 444 x17 + 695 x18 + 453 x19 + 914 x20 + 134 x21 + 707 x22 + 13 x23 + 407 x24 + 735 x25 + 264 x26 + 489 x27 + 399 x28 + 838 x29 + 406 x30 + 237 x31 + 484 x32 + 430 x33 + 183 x34 + 176 x35 + 999 x36 + 77 x37 + 942 x38 + 650 x39 + 291 x40 + 445 x41 + 195 x42 + 694 x43 + 719 x44 + 530 x45 + 844 x46 + 668 x47 + 904 x48 + 195 x49 + 773 x50 + 514 x51 + 703 x52 + 924 x53 + 123 x54 + 724 x55 + 518 x56 + 467 x57 + 773 x58 + 746 x59 + 129 x60 + 137 x61 + 292 x62 + 777 x63 + 843 x64 + 364 x65 + 725 x66 + 188 x67 + 350 x68 + 467 x69 + 853 x70 + 613 x71 + 135 x72 + 978 x73 + 604 x74 + 870 x75 + 977 x76 + 846 x77 + 341 x78 + 613 x79 + 257 x80 + 75 x81 + 229 x82 + 528 x83 + 514 x84 + 844 x85 + 170 x86 + 21 x87 + 666 x88 + 178 x89 + 614 x90 + 797 x91 + 869 x92 + 770 x93 + 172 x94 + 289 x95 + 360 x96 + 536 x97 + 258 x98 + 725 x99 + 336 x100 <= 25505.500000000000000
 c4:	632 x1 + 95 x2 + 845 x3 + 596 x4 + 694 x5 + 527 x6 + 318 x7 + 912 x8 + 972 x9 + 37 x10 + 934 x11 + 28 x12 + 661 x13 + 368 x14 + 6 x15 + 165 x16 + 943 x17 + 737 x18 + 734 x19 + 314 x20 + 134 x21 + 580 x22 + 922 x23 + 201 x24 + 871 x25 + 901 x26 + 932 x27 + 283 x28 + 162 x29 + 789 x30 + 954 x31 + 805 x32 + 756 x33 + 381 x34 + 490 x35 + 361 x36 + 955 x37 + 306 x38 + 587 x39 + 524 x40 + 27 x41 + 761 x42 + 950 x43 + 537 x44 + 112 x45 + 597 x46 + 76 x47 + 766 x48 + 237 x49 + 432 x50 + 625 x51 + 141 x52 + 21 x53 + 638 x54 + 946 x55 + 79 x56 + 777 x57 + 824 x58 + 27 x59 + 540 x60 + 577 x61 + 967 x62 + 428 x63 + 437 x64 + 686 x65 + 286 x66 + 925 x67 + 869 x68 + 239 x69 + 997 x70 + 311 x71 + 949 x72 + 330 x73 + 444 x74 + 213 x75 + 88 x76 + 942 x77 + 805 x78 + 643 x79 + 567 x80 + 478 x81 + 190 x82 + 845 x83 + 45 x84 + 113 x85 + 397 x86 + 772 x87 + 53 x88 + 328 x89 + 612 x90 + 357 x91 + 43 x92 + 7 x93 + 79 x94 + 402 x95 + 512 x96 + 543 x97 + 107 x98 + 380 x99 + 706 x100 <= 25098.500000000000000
Bounds
 0 <= x1 <= 1
 0 <= x2 <= 1
 0 <= x3 <= 1
 0 <= x4 <= 1
 0 <= x5 <= 1
 0 <= x6 <= 1
 0 <= x7 <= 1
 0 <= x8 <= 1
 0 <= x9 <= 1
 0 <= x10 <= 1
 0 <= x11 <= 1
 0 <= x12 <= 1
 0 <= x13 <= 1
 0 <= x14 <= 1
 0 <= x15 <= 1
 0 <= x16 <= 1
 0 <= x17 <= 1
 0 <= x18 <= 1
 0 <= x19 <= 1
 0 <= x20 <= 1
 0 <= x21 <= 1
 0 <= x22 <= 1
 0 <= x23 <= 1
 0 <= x24 <= 1
 0 <= x25 <= 1
 0 <= x26 <= 1
 0 <= x27 <= 1
 0 <= x28 <= 1
 0 <= x29 <= 1
 0 <= x30 <= 1
 0 <= x31 <= 1
 0 <= x32 <= 1
 0 <= x33 <= 1
 0 <= x34 <= 1
 0 <= x35 <= 1
 0 <= x36 <= 1
 0 <= x37 <= 1
 0 <= x38 <= 1
 0 <= x39 <= 1
 0 <= x40 <= 1
 0 <= x41 <= 1
 0 <= x42 <= 1
 0 <= x43 <= 1
 0 <= x44 <= 1
 0 <= x45 <= 1
 0 <= x46 <= 1
 0 <= x47 <= 1
 0 <= x48 <= 1
 0 <= x49 <= 1
 0 <= x50 <= 1
 0 <= x51 <= 1
 0 <= x52 <= 1
 0 <= x53 <= 1
 0 <= x54 <= 1
 0 <= x55 <= 1
 0 <= x56 <= 1
 0 <= x57 <= 1
 0 <= x58 <= 1
 0 <= x59 <= 1
 0 <= x60 <= 1
 0 <= x61 <= 1
 0 <= x62 <= 1
 0 <= x63 <= 1
 0 <= x64 <= 1
 0 <= x65 <= 1
 0 <= x66 <= 1
 0 <= x67 <= 1
 0 <= x68 <= 1
 0 <= x69 <= 1
 0 <= x70 <= 1
 0 <= x71 <= 1
 0 <= x72 <= 1
 0 <= x73 <= 1
 0 <= x74 <= 1
 0 <= x75 <= 1
 0 <= x76 <= 1
 0 <= x77 <= 1
 0 <= x78 <= 1
 0 <= x79 <= 1
 0 <= x80 <= 1
 0 <= x81 <= 1
 0 <= x82 <= 1
 0 <= x83 <= 1
 0 <= x84 <= 1
 0 <= x85 <= 1
 0 <= x86 <= 1
 0 <= x87 <= 1
 0 <= x88 <= 1
 0 <= x89 <= 1
 0 <= x90 <= 1
 0 <= x91 <= 1
 0 <= x92 <= 1
 0 <= x93 <= 1
 0 <= x94 <= 1
 0 <= x95 <= 1
 0 <= x96 <= 1
 0 <= x97 <= 1
 0 <= x98 <= 1
 0 <= x99 <= 1
 0 <= x100 <= 1
Binaries
 x1 x2 x3 x4 x5 x6 x7 x8 x9 x10 x11 x12 x13 x14 x15 x16 x17 x18 x19 x20 x21 x22 x23 x24 x25 x26 x27 x28 x29 x30 x31 x32 x33 x34 x35 x36 x37 x38 x39 x40 x41 x42 x43 x44 x45 x46 x47 x48 x49 x50 x51 x52 x53 x54 x55 x56 x57 x58 x59 x60 x61 x62 x63 x64 x65 x66 x67 x68 x69 x70 x71 x72 x73 x74 x75 x76 x77 x78 x79 x80 x81 x82 x83 x84 x85 x86 x87 x88 x89 x90 x91 x92 x93 x94 x95 x96 x97 x98 x99 x100
End